p cnf 12 76 
c Factors encoded in variables 1-6 and 7-12
c Target number: 2623
c Factors: 61 x 43
-5 4 -3 11 -9 8 0
5 -4 3 -11 10 -8 0
-5 4 11 -10 0
-5 -4 11 10 -9 0
2 8 0
5 3 11 0
-5 -4 -3 8 0
5 -3 2 10 -9 -8 0
5 11 -10 -8 0
5 -4 11 8 0
5 4 0
-3 -11 -10 -9 0
5 -2 11 10 0
-5 4 11 10 -9 0
4 -3 10 -9 0
-5 -2 -11 -10 -9 0
4 3 -10 8 0
-2 11 -10 0
11 10 0
-5 3 -11 10 9 8 0
5 11 9 0
1 0
5 -4 3 -2 -8 0
-5 -4 -2 11 -10 9 -8 0
-5 -2 -11 10 0
-4 2 -11 10 9 8 0
-5 4 3 2 -10 9 8 0
5 -4 -11 10 0
4 10 9 8 0
5 -4 11 -10 9 -8 0
-5 -4 -11 -10 0
-5 4 3 11 0
7 0
-4 -10 9 8 0
-11 -10 -8 0
10 -9 -8 0
5 4 11 10 0
4 10 0
4 3 10 -8 0
-5 4 -11 10 0
-4 2 10 9 0
5 -4 2 -11 10 0
-5 -4 3 11 10 -8 0
-4 -3 -11 10 -9 8 0
2 10 0
-3 -2 -9 0
-4 3 2 -10 0
5 -4 -3 11 -10 -9 0
5 -4 3 -2 -11 -10 -8 0
12 0
4 -3 -10 8 0
5 11 10 0
-4 3 -10 9 0
4 3 11 10 -9 0
4 -3 -2 10 0
-4 3 2 10 9 0
4 3 -2 11 -10 9 0
-4 3 10 -9 0
5 -3 -11 0
5 4 3 10 0
-5 4 -3 11 -10 0
-5 2 -11 -10 0
-5 -4 3 9 0
-4 -3 -2 -10 0
-5 -3 2 10 -9 0
5 4 11 0
-4 -10 -9 -8 0
-3 -9 0
-4 -2 10 -9 0
6 0
-3 -2 -11 -10 -9 -8 0
-5 -3 -11 -10 0
5 4 -3 -2 -11 -10 0
3 9 0
-4 2 -11 10 -9 -8 0
-2 -8 0
